207,331
1125,336
921,528
751,503
735,512
575,352
385,110
548,474
620,791
681,646
1155,481
1028,229
639,140
625,51
464,-21
300,25
342,67
448,173
830,112
921,528
999,724
956,681
847,919
625,51
524,-79
326,350
196,563
871,596
1093,705
1101,406
751,503
196,563
227,637
326,350
575,352
753,458
1108,267
1028,229
644,169
753,458
663,463
718,643
735,512
654,353
